p cnf 200 1766
1 2 3 4 5 0
6 7 8 9 10 0
11 12 13 14 15 0
16 17 18 19 20 0
21 22 23 24 25 0
26 27 28 29 30 0
31 32 33 34 35 0
36 37 38 39 40 0
41 42 43 44 45 0
46 47 48 49 50 0
51 52 53 54 55 0
56 57 58 59 60 0
61 62 63 64 65 0
66 67 68 69 70 0
71 72 73 74 75 0
76 77 78 79 80 0
81 82 83 84 85 0
86 87 88 89 90 0
91 92 93 94 95 0
96 97 98 99 100 0
101 102 103 104 105 0
106 107 108 109 110 0
111 112 113 114 115 0
116 117 118 119 120 0
121 122 123 124 125 0
126 127 128 129 130 0
131 132 133 134 135 0
136 137 138 139 140 0
141 142 143 144 145 0
146 147 148 149 150 0
151 152 153 154 155 0
156 157 158 159 160 0
161 162 163 164 165 0
166 167 168 169 170 0
171 172 173 174 175 0
176 177 178 179 180 0
181 182 183 184 185 0
186 187 188 189 190 0
191 192 193 194 195 0
196 197 198 199 200 0
-1 -2 0
-1 -3 0
-1 -4 0
-1 -5 0
-2 -3 0
-2 -4 0
-2 -5 0
-3 -4 0
-3 -5 0
-4 -5 0
-6 -7 0
-6 -8 0
-6 -9 0
-6 -10 0
-7 -8 0
-7 -9 0
-7 -10 0
-8 -9 0
-8 -10 0
-9 -10 0
-11 -12 0
-11 -13 0
-11 -14 0
-11 -15 0
-12 -13 0
-12 -14 0
-12 -15 0
-13 -14 0
-13 -15 0
-14 -15 0
-16 -17 0
-16 -18 0
-16 -19 0
-16 -20 0
-17 -18 0
-17 -19 0
-17 -20 0
-18 -19 0
-18 -20 0
-19 -20 0
-21 -22 0
-21 -23 0
-21 -24 0
-21 -25 0
-22 -23 0
-22 -24 0
-22 -25 0
-23 -24 0
-23 -25 0
-24 -25 0
-26 -27 0
-26 -28 0
-26 -29 0
-26 -30 0
-27 -28 0
-27 -29 0
-27 -30 0
-28 -29 0
-28 -30 0
-29 -30 0
-31 -32 0
-31 -33 0
-31 -34 0
-31 -35 0
-32 -33 0
-32 -34 0
-32 -35 0
-33 -34 0
-33 -35 0
-34 -35 0
-36 -37 0
-36 -38 0
-36 -39 0
-36 -40 0
-37 -38 0
-37 -39 0
-37 -40 0
-38 -39 0
-38 -40 0
-39 -40 0
-41 -42 0
-41 -43 0
-41 -44 0
-41 -45 0
-42 -43 0
-42 -44 0
-42 -45 0
-43 -44 0
-43 -45 0
-44 -45 0
-46 -47 0
-46 -48 0
-46 -49 0
-46 -50 0
-47 -48 0
-47 -49 0
-47 -50 0
-48 -49 0
-48 -50 0
-49 -50 0
-51 -52 0
-51 -53 0
-51 -54 0
-51 -55 0
-52 -53 0
-52 -54 0
-52 -55 0
-53 -54 0
-53 -55 0
-54 -55 0
-56 -57 0
-56 -58 0
-56 -59 0
-56 -60 0
-57 -58 0
-57 -59 0
-57 -60 0
-58 -59 0
-58 -60 0
-59 -60 0
-61 -62 0
-61 -63 0
-61 -64 0
-61 -65 0
-62 -63 0
-62 -64 0
-62 -65 0
-63 -64 0
-63 -65 0
-64 -65 0
-66 -67 0
-66 -68 0
-66 -69 0
-66 -70 0
-67 -68 0
-67 -69 0
-67 -70 0
-68 -69 0
-68 -70 0
-69 -70 0
-71 -72 0
-71 -73 0
-71 -74 0
-71 -75 0
-72 -73 0
-72 -74 0
-72 -75 0
-73 -74 0
-73 -75 0
-74 -75 0
-76 -77 0
-76 -78 0
-76 -79 0
-76 -80 0
-77 -78 0
-77 -79 0
-77 -80 0
-78 -79 0
-78 -80 0
-79 -80 0
-81 -82 0
-81 -83 0
-81 -84 0
-81 -85 0
-82 -83 0
-82 -84 0
-82 -85 0
-83 -84 0
-83 -85 0
-84 -85 0
-86 -87 0
-86 -88 0
-86 -89 0
-86 -90 0
-87 -88 0
-87 -89 0
-87 -90 0
-88 -89 0
-88 -90 0
-89 -90 0
-91 -92 0
-91 -93 0
-91 -94 0
-91 -95 0
-92 -93 0
-92 -94 0
-92 -95 0
-93 -94 0
-93 -95 0
-94 -95 0
-96 -97 0
-96 -98 0
-96 -99 0
-96 -100 0
-97 -98 0
-97 -99 0
-97 -100 0
-98 -99 0
-98 -100 0
-99 -100 0
-101 -102 0
-101 -103 0
-101 -104 0
-101 -105 0
-102 -103 0
-102 -104 0
-102 -105 0
-103 -104 0
-103 -105 0
-104 -105 0
-106 -107 0
-106 -108 0
-106 -109 0
-106 -110 0
-107 -108 0
-107 -109 0
-107 -110 0
-108 -109 0
-108 -110 0
-109 -110 0
-111 -112 0
-111 -113 0
-111 -114 0
-111 -115 0
-112 -113 0
-112 -114 0
-112 -115 0
-113 -114 0
-113 -115 0
-114 -115 0
-116 -117 0
-116 -118 0
-116 -119 0
-116 -120 0
-117 -118 0
-117 -119 0
-117 -120 0
-118 -119 0
-118 -120 0
-119 -120 0
-121 -122 0
-121 -123 0
-121 -124 0
-121 -125 0
-122 -123 0
-122 -124 0
-122 -125 0
-123 -124 0
-123 -125 0
-124 -125 0
-126 -127 0
-126 -128 0
-126 -129 0
-126 -130 0
-127 -128 0
-127 -129 0
-127 -130 0
-128 -129 0
-128 -130 0
-129 -130 0
-131 -132 0
-131 -133 0
-131 -134 0
-131 -135 0
-132 -133 0
-132 -134 0
-132 -135 0
-133 -134 0
-133 -135 0
-134 -135 0
-136 -137 0
-136 -138 0
-136 -139 0
-136 -140 0
-137 -138 0
-137 -139 0
-137 -140 0
-138 -139 0
-138 -140 0
-139 -140 0
-141 -142 0
-141 -143 0
-141 -144 0
-141 -145 0
-142 -143 0
-142 -144 0
-142 -145 0
-143 -144 0
-143 -145 0
-144 -145 0
-146 -147 0
-146 -148 0
-146 -149 0
-146 -150 0
-147 -148 0
-147 -149 0
-147 -150 0
-148 -149 0
-148 -150 0
-149 -150 0
-151 -152 0
-151 -153 0
-151 -154 0
-151 -155 0
-152 -153 0
-152 -154 0
-152 -155 0
-153 -154 0
-153 -155 0
-154 -155 0
-156 -157 0
-156 -158 0
-156 -159 0
-156 -160 0
-157 -158 0
-157 -159 0
-157 -160 0
-158 -159 0
-158 -160 0
-159 -160 0
-161 -162 0
-161 -163 0
-161 -164 0
-161 -165 0
-162 -163 0
-162 -164 0
-162 -165 0
-163 -164 0
-163 -165 0
-164 -165 0
-166 -167 0
-166 -168 0
-166 -169 0
-166 -170 0
-167 -168 0
-167 -169 0
-167 -170 0
-168 -169 0
-168 -170 0
-169 -170 0
-171 -172 0
-171 -173 0
-171 -174 0
-171 -175 0
-172 -173 0
-172 -174 0
-172 -175 0
-173 -174 0
-173 -175 0
-174 -175 0
-176 -177 0
-176 -178 0
-176 -179 0
-176 -180 0
-177 -178 0
-177 -179 0
-177 -180 0
-178 -179 0
-178 -180 0
-179 -180 0
-181 -182 0
-181 -183 0
-181 -184 0
-181 -185 0
-182 -183 0
-182 -184 0
-182 -185 0
-183 -184 0
-183 -185 0
-184 -185 0
-186 -187 0
-186 -188 0
-186 -189 0
-186 -190 0
-187 -188 0
-187 -189 0
-187 -190 0
-188 -189 0
-188 -190 0
-189 -190 0
-191 -192 0
-191 -193 0
-191 -194 0
-191 -195 0
-192 -193 0
-192 -194 0
-192 -195 0
-193 -194 0
-193 -195 0
-194 -195 0
-196 -197 0
-196 -198 0
-196 -199 0
-196 -200 0
-197 -198 0
-197 -199 0
-197 -200 0
-198 -199 0
-198 -200 0
-199 -200 0
-1 -42 0
-2 -41 0
-4 -45 0
-1 -45 0
-2 -42 0
-4 -44 0
-5 -44 0
-5 -43 0
-5 -41 0
-4 -43 0
-4 -42 0
-3 -41 0
-2 -45 0
-1 -41 0
-1 -43 0
-4 -41 0
-3 -44 0
-1 -89 0
-5 -90 0
-5 -86 0
-1 -90 0
-3 -86 0
-5 -87 0
-1 -86 0
-2 -87 0
-2 -89 0
-4 -88 0
-3 -88 0
-2 -90 0
-5 -88 0
-4 -89 0
-4 -86 0
-4 -90 0
-1 -88 0
-1 -105 0
-3 -102 0
-4 -104 0
-2 -102 0
-5 -101 0
-3 -105 0
-2 -104 0
-5 -105 0
-3 -104 0
-2 -105 0
-4 -105 0
-2 -101 0
-3 -101 0
-5 -102 0
-1 -102 0
-5 -103 0
-4 -103 0
-1 -108 0
-2 -109 0
-3 -108 0
-5 -106 0
-4 -110 0
-5 -110 0
-4 -108 0
-3 -110 0
-4 -109 0
-3 -107 0
-1 -106 0
-2 -108 0
-5 -107 0
-1 -109 0
-2 -106 0
-5 -109 0
-2 -107 0
-2 -175 0
-4 -174 0
-4 -171 0
-2 -174 0
-5 -173 0
-3 -172 0
-1 -172 0
-1 -174 0
-4 -175 0
-2 -172 0
-5 -171 0
-4 -172 0
-3 -173 0
-1 -171 0
-5 -174 0
-3 -171 0
-2 -171 0
-5 -180 0
-3 -180 0
-1 -179 0
-1 -178 0
-2 -178 0
-5 -179 0
-5 -178 0
-1 -176 0
-4 -180 0
-3 -179 0
-2 -179 0
-3 -178 0
-3 -177 0
-1 -177 0
-2 -176 0
-1 -180 0
-4 -179 0
-6 -41 0
-7 -42 0
-8 -44 0
-8 -41 0
-10 -45 0
-10 -43 0
-7 -45 0
-8 -45 0
-6 -45 0
-8 -43 0
-7 -41 0
-6 -43 0
-10 -44 0
-7 -43 0
-7 -44 0
-9 -45 0
-9 -42 0
-8 -51 0
-10 -54 0
-10 -55 0
-7 -55 0
-10 -53 0
-6 -53 0
-9 -51 0
-6 -55 0
-10 -51 0
-7 -54 0
-9 -55 0
-8 -53 0
-6 -54 0
-9 -53 0
-6 -52 0
-7 -52 0
-9 -52 0
-8 -166 0
-6 -166 0
-10 -168 0
-8 -169 0
-10 -166 0
-6 -168 0
-7 -166 0
-8 -168 0
-9 -166 0
-10 -170 0
-6 -170 0
-7 -170 0
-6 -169 0
-8 -167 0
-9 -167 0
-10 -169 0
-9 -169 0
-11 -28 0
-15 -30 0
-15 -29 0
-15 -26 0
-15 -28 0
-13 -30 0
-12 -26 0
-11 -27 0
-11 -30 0
-14 -30 0
-11 -29 0
-12 -30 0
-13 -28 0
-11 -26 0
-13 -27 0
-14 -26 0
-12 -27 0
-15 -63 0
-15 -61 0
-15 -64 0
-11 -62 0
-13 -62 0
-14 -61 0
-12 -62 0
-13 -65 0
-11 -61 0
-14 -64 0
-11 -65 0
-13 -61 0
-15 -65 0
-11 -64 0
-12 -63 0
-14 -63 0
-12 -64 0
-11 -92 0
-15 -93 0
-12 -94 0
-11 -95 0
-15 -91 0
-14 -95 0
-15 -95 0
-14 -92 0
-14 -93 0
-13 -95 0
-13 -94 0
-13 -93 0
-12 -92 0
-14 -91 0
-11 -93 0
-12 -93 0
-11 -91 0
-16 -28 0
-16 -30 0
-19 -29 0
-18 -29 0
-17 -27 0
-16 -26 0
-20 -27 0
-19 -28 0
-18 -26 0
-18 -27 0
-20 -26 0
-20 -29 0
-17 -26 0
-17 -30 0
-19 -30 0
-19 -27 0
-16 -29 0
-16 -49 0
-19 -46 0
-18 -50 0
-16 -46 0
-18 -49 0
-17 -48 0
-17 -46 0
-16 -48 0
-19 -47 0
-17 -49 0
-19 -48 0
-17 -47 0
-20 -48 0
-16 -47 0
-20 -50 0
-17 -50 0
-20 -46 0
-20 -109 0
-20 -107 0
-19 -110 0
-20 -110 0
-19 -109 0
-17 -106 0
-20 -108 0
-17 -107 0
-16 -110 0
-17 -110 0
-20 -106 0
-18 -110 0
-18 -106 0
-17 -108 0
-16 -108 0
-18 -108 0
-16 -109 0
-23 -39 0
-24 -38 0
-24 -40 0
-21 -36 0
-21 -37 0
-25 -36 0
-24 -37 0
-22 -38 0
-23 -40 0
-23 -37 0
-25 -39 0
-24 -39 0
-25 -40 0
-21 -38 0
-22 -36 0
-24 -36 0
-23 -36 0
-24 -96 0
-21 -99 0
-21 -96 0
-22 -96 0
-23 -97 0
-24 -98 0
-24 -99 0
-25 -96 0
-25 -100 0
-21 -97 0
-23 -98 0
-22 -98 0
-25 -98 0
-24 -97 0
-22 -97 0
-24 -100 0
-25 -99 0
-26 -46 0
-27 -50 0
-29 -48 0
-28 -48 0
-30 -50 0
-29 -50 0
-30 -49 0
-30 -47 0
-28 -47 0
-30 -48 0
-26 -47 0
-28 -46 0
-30 -46 0
-27 -47 0
-29 -49 0
-26 -48 0
-27 -49 0
-29 -147 0
-29 -146 0
-29 -150 0
-27 -147 0
-27 -150 0
-28 -149 0
-27 -146 0
-27 -148 0
-26 -148 0
-28 -150 0
-27 -149 0
-28 -147 0
-26 -146 0
-30 -147 0
-28 -148 0
-30 -149 0
-26 -149 0
-28 -175 0
-30 -175 0
-27 -171 0
-29 -174 0
-29 -171 0
-27 -175 0
-27 -172 0
-28 -173 0
-28 -171 0
-26 -174 0
-26 -173 0
-28 -172 0
-26 -171 0
-30 -172 0
-29 -175 0
-29 -172 0
-26 -172 0
-32 -69 0
-33 -68 0
-35 -67 0
-34 -67 0
-35 -69 0
-33 -67 0
-31 -68 0
-35 -68 0
-33 -66 0
-32 -66 0
-33 -69 0
-31 -66 0
-31 -67 0
-35 -66 0
-31 -69 0
-34 -66 0
-33 -70 0
-32 -81 0
-31 -83 0
-34 -85 0
-34 -82 0
-32 -85 0
-33 -84 0
-31 -85 0
-34 -83 0
-32 -82 0
-31 -84 0
-35 -82 0
-31 -81 0
-33 -83 0
-34 -84 0
-31 -82 0
-33 -82 0
-35 -85 0
-32 -105 0
-31 -105 0
-35 -102 0
-32 -103 0
-33 -105 0
-34 -103 0
-31 -104 0
-33 -102 0
-31 -103 0
-34 -102 0
-35 -101 0
-32 -102 0
-33 -103 0
-35 -105 0
-35 -104 0
-34 -101 0
-34 -104 0
-35 -122 0
-32 -122 0
-34 -122 0
-34 -121 0
-35 -124 0
-32 -123 0
-33 -124 0
-35 -123 0
-32 -124 0
-34 -125 0
-34 -124 0
-33 -125 0
-35 -125 0
-31 -122 0
-35 -121 0
-32 -125 0
-31 -123 0
-34 -154 0
-32 -152 0
-33 -154 0
-33 -155 0
-32 -155 0
-35 -153 0
-33 -151 0
-34 -153 0
-31 -151 0
-35 -151 0
-32 -153 0
-34 -155 0
-35 -152 0
-33 -152 0
-32 -154 0
-31 -154 0
-31 -153 0
-40 -55 0
-39 -51 0
-36 -55 0
-40 -51 0
-37 -55 0
-40 -54 0
-37 -54 0
-39 -52 0
-36 -54 0
-36 -51 0
-39 -55 0
-39 -54 0
-36 -52 0
-38 -52 0
-38 -53 0
-37 -52 0
-40 -53 0
-39 -118 0
-39 -119 0
-38 -120 0
-37 -116 0
-36 -116 0
-40 -116 0
-38 -119 0
-37 -117 0
-40 -119 0
-36 -117 0
-36 -118 0
-39 -117 0
-40 -117 0
-39 -120 0
-37 -119 0
-40 -118 0
-40 -120 0
-37 -182 0
-36 -184 0
-38 -181 0
-39 -185 0
-38 -185 0
-39 -182 0
-36 -185 0
-37 -183 0
-40 -183 0
-37 -185 0
-40 -185 0
-36 -183 0
-36 -182 0
-38 -184 0
-40 -182 0
-39 -183 0
-38 -182 0
-43 -108 0
-44 -110 0
-44 -109 0
-41 -107 0
-43 -110 0
-41 -110 0
-45 -109 0
-41 -109 0
-45 -107 0
-42 -108 0
-45 -108 0
-41 -108 0
-45 -110 0
-44 -107 0
-42 -107 0
-42 -109 0
-43 -107 0
-47 -64 0
-46 -63 0
-48 -61 0
-47 -62 0
-46 -64 0
-50 -61 0
-49 -65 0
-47 -63 0
-49 -64 0
-48 -62 0
-50 -63 0
-47 -61 0
-46 -65 0
-50 -65 0
-49 -62 0
-47 -65 0
-49 -61 0
-47 -80 0
-49 -78 0
-48 -80 0
-47 -76 0
-48 -76 0
-46 -79 0
-50 -80 0
-50 -76 0
-50 -79 0
-46 -76 0
-47 -78 0
-47 -79 0
-48 -78 0
-46 -78 0
-46 -80 0
-48 -79 0
-50 -78 0
-46 -81 0
-47 -81 0
-49 -84 0
-47 -85 0
-46 -85 0
-46 -83 0
-48 -85 0
-48 -84 0
-47 -83 0
-50 -84 0
-47 -82 0
-49 -85 0
-50 -83 0
-46 -82 0
-48 -83 0
-50 -85 0
-48 -82 0
-49 -148 0
-50 -146 0
-47 -147 0
-47 -150 0
-47 -146 0
-48 -150 0
-50 -147 0
-48 -146 0
-47 -148 0
-46 -147 0
-50 -150 0
-49 -147 0
-48 -148 0
-46 -148 0
-47 -149 0
-48 -147 0
-49 -149 0
-47 -166 0
-47 -167 0
-50 -166 0
-50 -167 0
-47 -169 0
-48 -170 0
-46 -166 0
-49 -168 0
-49 -166 0
-47 -170 0
-50 -170 0
-50 -169 0
-48 -166 0
-47 -168 0
-48 -168 0
-50 -168 0
-49 -167 0
-50 -171 0
-48 -175 0
-48 -173 0
-47 -175 0
-49 -172 0
-47 -171 0
-50 -175 0
-48 -174 0
-46 -175 0
-49 -174 0
-49 -173 0
-50 -172 0
-48 -171 0
-46 -171 0
-46 -172 0
-46 -174 0
-47 -174 0
-48 -180 0
-50 -180 0
-48 -176 0
-49 -177 0
-48 -178 0
-46 -176 0
-49 -176 0
-50 -177 0
-49 -178 0
-49 -179 0
-48 -179 0
-47 -176 0
-50 -178 0
-46 -177 0
-49 -180 0
-47 -178 0
-46 -180 0
-54 -131 0
-55 -132 0
-52 -132 0
-55 -134 0
-53 -135 0
-52 -131 0
-55 -133 0
-55 -131 0
-53 -131 0
-54 -133 0
-55 -135 0
-52 -133 0
-53 -132 0
-51 -131 0
-52 -135 0
-54 -132 0
-53 -134 0
-60 -130 0
-58 -126 0
-58 -129 0
-56 -130 0
-60 -127 0
-56 -129 0
-57 -126 0
-56 -127 0
-57 -129 0
-58 -127 0
-58 -130 0
-59 -129 0
-57 -127 0
-57 -130 0
-59 -128 0
-60 -128 0
-56 -128 0
-56 -147 0
-60 -146 0
-58 -148 0
-57 -149 0
-60 -150 0
-59 -147 0
-56 -148 0
-60 -149 0
-60 -148 0
-57 -148 0
-59 -146 0
-57 -147 0
-56 -149 0
-57 -146 0
-56 -150 0
-60 -147 0
-57 -150 0
-56 -161 0
-60 -161 0
-58 -161 0
-58 -162 0
-57 -164 0
-56 -164 0
-59 -161 0
-60 -164 0
-60 -162 0
-57 -162 0
-59 -162 0
-59 -163 0
-59 -165 0
-57 -161 0
-56 -163 0
-60 -163 0
-60 -165 0
-60 -174 0
-60 -172 0
-60 -175 0
-56 -175 0
-58 -172 0
-59 -173 0
-58 -173 0
-59 -174 0
-59 -171 0
-57 -172 0
-57 -174 0
-58 -171 0
-60 -173 0
-57 -171 0
-56 -174 0
-57 -175 0
-56 -171 0
-63 -78 0
-62 -76 0
-65 -77 0
-61 -78 0
-62 -79 0
-62 -77 0
-63 -77 0
-65 -78 0
-61 -80 0
-63 -79 0
-64 -80 0
-65 -79 0
-63 -76 0
-64 -79 0
-61 -77 0
-62 -80 0
-62 -78 0
-64 -170 0
-63 -169 0
-64 -167 0
-64 -169 0
-61 -169 0
-65 -167 0
-62 -169 0
-62 -166 0
-61 -170 0
-65 -169 0
-65 -166 0
-62 -167 0
-63 -167 0
-62 -168 0
-61 -166 0
-61 -167 0
-63 -168 0
-63 -175 0
-64 -172 0
-62 -173 0
-64 -175 0
-65 -175 0
-61 -173 0
-63 -173 0
-61 -174 0
-65 -173 0
-65 -172 0
-63 -172 0
-63 -171 0
-61 -172 0
-63 -174 0
-62 -172 0
-64 -173 0
-65 -171 0
-63 -181 0
-61 -183 0
-65 -183 0
-64 -183 0
-65 -184 0
-63 -185 0
-64 -184 0
-62 -182 0
-61 -184 0
-64 -182 0
-64 -185 0
-62 -185 0
-63 -184 0
-61 -181 0
-65 -182 0
-63 -182 0
-62 -183 0
-67 -148 0
-69 -146 0
-66 -149 0
-69 -148 0
-66 -150 0
-70 -150 0
-70 -146 0
-68 -150 0
-66 -146 0
-70 -148 0
-66 -147 0
-70 -147 0
-66 -148 0
-67 -149 0
-69 -149 0
-67 -150 0
-67 -146 0
-78 -198 0
-78 -199 0
-77 -198 0
-76 -199 0
-80 -198 0
-77 -199 0
-77 -197 0
-80 -196 0
-79 -198 0
-78 -200 0
-76 -198 0
-76 -197 0
-78 -197 0
-80 -200 0
-76 -200 0
-76 -196 0
-77 -196 0
-83 -115 0
-84 -115 0
-84 -112 0
-81 -115 0
-85 -115 0
-84 -113 0
-81 -112 0
-83 -112 0
-83 -114 0
-85 -113 0
-85 -111 0
-82 -115 0
-81 -114 0
-82 -113 0
-82 -114 0
-83 -113 0
-81 -113 0
-85 -136 0
-84 -139 0
-81 -139 0
-85 -137 0
-83 -136 0
-81 -137 0
-83 -140 0
-83 -138 0
-82 -136 0
-84 -136 0
-84 -137 0
-81 -136 0
-85 -138 0
-82 -139 0
-85 -139 0
-84 -140 0
-85 -140 0
-83 -192 0
-84 -194 0
-85 -194 0
-82 -192 0
-83 -193 0
-81 -195 0
-82 -193 0
-81 -192 0
-84 -195 0
-85 -192 0
-85 -195 0
-84 -193 0
-83 -191 0
-84 -192 0
-81 -193 0
-85 -191 0
-83 -194 0
-86 -158 0
-88 -156 0
-88 -160 0
-87 -157 0
-90 -160 0
-90 -159 0
-89 -159 0
-86 -156 0
-87 -156 0
-90 -156 0
-88 -159 0
-89 -157 0
-89 -160 0
-88 -158 0
-86 -159 0
-87 -160 0
-87 -159 0
-87 -166 0
-90 -166 0
-87 -168 0
-86 -166 0
-89 -167 0
-86 -167 0
-86 -169 0
-87 -167 0
-87 -169 0
-90 -169 0
-88 -166 0
-90 -167 0
-86 -170 0
-86 -168 0
-89 -169 0
-87 -170 0
-89 -168 0
-91 -133 0
-91 -134 0
-94 -135 0
-95 -134 0
-95 -131 0
-92 -135 0
-93 -133 0
-91 -131 0
-95 -135 0
-93 -132 0
-94 -134 0
-94 -132 0
-91 -132 0
-92 -134 0
-93 -135 0
-95 -133 0
-92 -131 0
-93 -161 0
-94 -164 0
-94 -165 0
-92 -164 0
-91 -162 0
-95 -161 0
-95 -165 0
-93 -165 0
-94 -163 0
-93 -163 0
-92 -162 0
-91 -161 0
-92 -161 0
-91 -163 0
-95 -163 0
-93 -164 0
-92 -163 0
-92 -170 0
-95 -167 0
-91 -168 0
-92 -169 0
-93 -169 0
-94 -169 0
-93 -167 0
-92 -166 0
-92 -167 0
-91 -166 0
-94 -170 0
-91 -167 0
-93 -168 0
-91 -170 0
-92 -168 0
-93 -166 0
-91 -169 0
-94 -176 0
-93 -176 0
-95 -180 0
-92 -177 0
-94 -177 0
-94 -179 0
-91 -178 0
-91 -179 0
-93 -177 0
-95 -178 0
-91 -177 0
-92 -176 0
-93 -179 0
-95 -179 0
-95 -176 0
-93 -180 0
-92 -178 0
-91 -184 0
-95 -183 0
-92 -182 0
-93 -181 0
-91 -185 0
-94 -181 0
-95 -182 0
-94 -182 0
-95 -184 0
-93 -184 0
-93 -183 0
-95 -185 0
-92 -181 0
-91 -182 0
-93 -185 0
-93 -182 0
-92 -184 0
-91 -191 0
-93 -193 0
-92 -195 0
-91 -192 0
-93 -192 0
-92 -194 0
-92 -191 0
-92 -193 0
-93 -194 0
-95 -194 0
-95 -195 0
-91 -193 0
-94 -193 0
-95 -192 0
-95 -191 0
-93 -191 0
-91 -195 0
-96 -129 0
-100 -126 0
-97 -127 0
-97 -130 0
-100 -127 0
-98 -126 0
-98 -127 0
-97 -128 0
-100 -130 0
-98 -129 0
-96 -127 0
-100 -128 0
-96 -126 0
-99 -129 0
-100 -129 0
-99 -130 0
-97 -129 0
-97 -144 0
-98 -142 0
-99 -143 0
-100 -144 0
-99 -142 0
-100 -143 0
-97 -143 0
-96 -141 0
-96 -145 0
-97 -142 0
-96 -143 0
-98 -144 0
-96 -144 0
-100 -145 0
-98 -145 0
-97 -145 0
-96 -142 0
-99 -193 0
-96 -194 0
-100 -194 0
-98 -193 0
-96 -195 0
-97 -194 0
-100 -192 0
-97 -192 0
-97 -195 0
-100 -191 0
-99 -191 0
-96 -192 0
-97 -193 0
-97 -191 0
-100 -193 0
-98 -194 0
-96 -191 0
-105 -144 0
-102 -141 0
-101 -142 0
-101 -144 0
-103 -142 0
-102 -143 0
-104 -142 0
-102 -144 0
-105 -145 0
-101 -143 0
-103 -141 0
-103 -143 0
-103 -144 0
-104 -145 0
-101 -145 0
-105 -142 0
-105 -143 0
-103 -172 0
-103 -174 0
-101 -173 0
-102 -175 0
-102 -172 0
-104 -172 0
-103 -175 0
-102 -173 0
-105 -175 0
-103 -171 0
-101 -171 0
-105 -174 0
-105 -173 0
-103 -173 0
-101 -175 0
-102 -174 0
-101 -174 0
-103 -186 0
-103 -189 0
-105 -186 0
-103 -190 0
-104 -190 0
-102 -189 0
-105 -190 0
-104 -189 0
-104 -187 0
-102 -188 0
-102 -190 0
-101 -188 0
-105 -187 0
-101 -189 0
-105 -189 0
-104 -186 0
-104 -188 0
-112 -127 0
-112 -130 0
-113 -130 0
-113 -128 0
-112 -129 0
-115 -129 0
-111 -128 0
-115 -127 0
-113 -126 0
-111 -130 0
-113 -127 0
-112 -126 0
-114 -126 0
-115 -130 0
-115 -126 0
-114 -130 0
-113 -129 0
-111 -151 0
-112 -154 0
-115 -152 0
-113 -154 0
-112 -151 0
-114 -153 0
-115 -151 0
-111 -152 0
-114 -155 0
-111 -155 0
-114 -154 0
-115 -153 0
-112 -155 0
-113 -153 0
-112 -153 0
-113 -155 0
-113 -151 0
-115 -178 0
-114 -179 0
-111 -178 0
-115 -180 0
-112 -178 0
-111 -177 0
-111 -179 0
-114 -178 0
-112 -177 0
-111 -180 0
-113 -178 0
-114 -180 0
-111 -176 0
-112 -176 0
-115 -179 0
-112 -180 0
-113 -179 0
-111 -187 0
-111 -188 0
-114 -186 0
-113 -186 0
-114 -187 0
-112 -187 0
-113 -190 0
-111 -186 0
-115 -189 0
-113 -189 0
-112 -189 0
-111 -189 0
-113 -187 0
-113 -188 0
-115 -187 0
-111 -190 0
-112 -186 0
-117 -199 0
-117 -200 0
-116 -198 0
-118 -197 0
-120 -198 0
-116 -197 0
-118 -200 0
-120 -199 0
-117 -196 0
-118 -199 0
-119 -197 0
-118 -196 0
-119 -196 0
-119 -198 0
-120 -197 0
-119 -200 0
-116 -196 0
-122 -129 0
-123 -129 0
-125 -127 0
-124 -128 0
-122 -128 0
-125 -129 0
-122 -126 0
-125 -126 0
-123 -130 0
-123 -128 0
-124 -126 0
-123 -126 0
-121 -129 0
-124 -130 0
-124 -127 0
-122 -127 0
-121 -128 0
-133 -169 0
-131 -169 0
-132 -169 0
-135 -168 0
-131 -170 0
-131 -168 0
-133 -168 0
-134 -169 0
-133 -167 0
-133 -170 0
-135 -169 0
-132 -167 0
-135 -166 0
-135 -167 0
-132 -170 0
-134 -166 0
-131 -167 0
-131 -178 0
-135 -179 0
-131 -176 0
-133 -176 0
-131 -179 0
-131 -180 0
-132 -180 0
-133 -177 0
-134 -179 0
-134 -177 0
-132 -179 0
-134 -178 0
-132 -177 0
-133 -180 0
-135 -177 0
-135 -178 0
-133 -179 0
-131 -187 0
-134 -187 0
-134 -188 0
-134 -186 0
-133 -186 0
-134 -189 0
-135 -189 0
-135 -188 0
-131 -186 0
-135 -186 0
-133 -190 0
-132 -189 0
-134 -190 0
-132 -186 0
-133 -187 0
-132 -188 0
-135 -190 0
-132 -194 0
-133 -195 0
-133 -194 0
-132 -191 0
-133 -192 0
-134 -192 0
-131 -192 0
-132 -192 0
-131 -195 0
-134 -194 0
-131 -193 0
-135 -192 0
-132 -193 0
-134 -195 0
-133 -191 0
-135 -193 0
-133 -193 0
-140 -141 0
-139 -144 0
-137 -141 0
-137 -144 0
-136 -143 0
-139 -142 0
-139 -145 0
-136 -142 0
-140 -145 0
-138 -143 0
-140 -143 0
-138 -144 0
-137 -143 0
-137 -145 0
-138 -145 0
-138 -142 0
-139 -143 0
-154 -184 0
-153 -185 0
-151 -185 0
-151 -184 0
-154 -181 0
-153 -183 0
-155 -182 0
-154 -185 0
-154 -182 0
-155 -181 0
-154 -183 0
-153 -182 0
-152 -184 0
-151 -182 0
-151 -181 0
-153 -181 0
-155 -183 0
-157 -177 0
-159 -177 0
-156 -177 0
-159 -176 0
-157 -178 0
-160 -178 0
-156 -176 0
-158 -178 0
-157 -180 0
-160 -179 0
-159 -179 0
-160 -180 0
-157 -179 0
-160 -177 0
-158 -177 0
-156 -180 0
-158 -176 0
-167 -196 0
-167 -200 0
-169 -199 0
-168 -196 0
-169 -196 0
-168 -197 0
-170 -199 0
-170 -196 0
-166 -197 0
-169 -198 0
-167 -197 0
-166 -196 0
-168 -200 0
-169 -200 0
-166 -199 0
-170 -198 0
-167 -198 0
